This is Ipopt version 3.10.0, running with linear solver ma27.

Number of nonzeros in equality constraint Jacobian...:        2
Number of nonzeros in inequality constraint Jacobian.:        4
Number of nonzeros in Lagrangian Hessian.............:        0

Total number of variables............................:        2
                     variables with only lower bounds:        0
                variables with lower and upper bounds:        2
                     variables with only upper bounds:        0
Total number of equality constraints.................:        1
Total number of inequality constraints...............:        2
        inequality constraints with only lower bounds:        0
   inequality constraints with lower and upper bounds:        0
        inequality constraints with only upper bounds:        2

iter    objective    inf_pr   inf_du lg(mu)  ||d||  lg(rg) alpha_du alpha_pr  ls
   0  9.6100000e+04 4.66e-01 3.00e+02   0.0 0.00e+00    -  0.00e+00 0.00e+00   0
   1  9.5502939e+04 4.63e-01 5.25e+03   2.1 3.47e+02    -  4.57e-01 4.66e-03h  1
   2  1.0446299e+05 2.75e-01 3.25e+05   1.9 1.86e+02    -  6.44e-03 3.92e-01h  1
   3  1.2911151e+05 2.44e-02 2.51e+02   2.3 1.12e+02    -  1.00e+00 1.00e+00h  1
   4  1.3215928e+05 1.79e-03 1.62e+01   0.9 6.28e+00    -  9.87e-01 9.96e-01h  1
   5  1.3176613e+05 3.97e-04 5.34e+01  -0.9 6.42e-01    -  9.91e-01 1.00e+00f  1
   6  1.3182188e+05 2.91e-05 5.00e-01  -2.1 8.76e-02    -  1.00e+00 9.97e-01h  1
   7  1.3181400e+05 9.16e-06 3.23e-05  -4.2 1.19e-02    -  1.00e+00 1.00e+00f  1

Number of Iterations....: 7

                                   (scaled)                 (unscaled)
Objective...............:   1.3181399508310505e+05    1.3181399508310505e+05
Dual infeasibility......:   3.2297525759390281e-05    3.2297525759390281e-05
Constraint violation....:   9.1550274830976098e-06    9.1550274830976098e-06
Complementarity.........:   7.1541451627890831e-05    7.1541451627890831e-05
Overall NLP error.......:   9.1550274830976098e-06    7.1541451627890831e-05


Number of objective function evaluations             = 8
Number of objective gradient evaluations             = 8
Number of equality constraint evaluations            = 8
Number of inequality constraint evaluations          = 8
Number of equality constraint Jacobian evaluations   = 8
Number of inequality constraint Jacobian evaluations = 8
Number of Lagrangian Hessian evaluations             = 0
Total CPU secs in IPOPT (w/o function evaluations)   =      0.009
Total CPU secs in NLP function evaluations           =      5.158

EXIT: Optimal Solution Found.
